&CONTROL
    calculation = 'vc-relax'
    pseudo_dir = './pseudo'
    outdir = './outdir'
    tstress = .true.
    tprnfor = .true.
    disk_io = 'none'
    nstep = 300
    etot_conv_thr = 0.0001
    forc_conv_thr = 0.001
/ 
&SYSTEM
    ecutwfc = 60
    ecutrho = 720
    occupations = 'smearing'
    smearing = 'gaussian'
    degauss = 0.01
    ntyp = 5
    nat = 224
    ibrav = 0
/ 
&ELECTRONS
    diagonalization = 'david'
    electron_maxstep = 120
    mixing_mode = 'local-TF'
    mixing_beta = 0.5
    mixing_ndim = 10
    conv_thr = 1e-08
/ 
&IONS
    ion_dynamics = 'bfgs'
/ 
&CELL
    cell_dynamics = 'bfgs'
    press_conv_thr = 5
/ 
K_POINTS {automatic}
 3 3 1  0 0 0
ATOMIC_SPECIES
  Ba 137.327 Ba.pbe-nsp-van.UPF
  Ca 40.078 Ca.pbe-nsp-van.UPF
  Cu 63.546 Cu.pbe-n-van_ak.UPF
  O 15.999 O.pbe-van_ak.UPF
  Y 88.90584 Y.pbe-nsp-van.UPF
CELL_PARAMETERS {angstrom}
 -7.587021933 7.807135371 0.0
 7.587021933 7.807135371 0.0
 0.0 0.0 43.496858844
ATOMIC_POSITIONS {angstrom}
  O 3.78344 9.75892 -0.00017
  O 0.01007 9.75892 -0.00017
  Cu 0.00042 0.00130 -0.00016
  Cu 0.00042 3.90226 -0.00016
  Cu 3.79309 3.90226 -0.00016
  Cu -3.79393 7.80844 -0.00016
  Cu 3.79328 7.80724 -0.00016
  Cu 0.00023 11.71060 -0.00016
  Cu -3.79375 3.90346 -0.00016
  Cu 0.00023 7.80724 -0.00016
  O -0.00377 5.85492 -0.00015
  O 3.79728 5.85492 -0.00015
  O -0.00377 13.66292 -0.00015
  O -3.78975 5.85578 -0.00015
  O -3.78837 9.75892 -0.00011
  O -0.00514 1.95178 -0.00011
  O 3.79682 3.90599 1.87713
  O -0.00331 3.90599 1.87713
  O -0.00331 -0.00242 1.87713
  O -3.79020 7.80471 1.87713
  O 3.79368 7.80632 1.88199
  O -3.79335 3.90439 1.88199
  O -0.00017 7.80632 1.88199
  O -0.00017 11.71152 1.88199
  Ba 1.89676 9.75892 2.09648
  Ba 5.69027 5.85535 2.10019
  Ba -1.89676 5.85535 2.10019
  Ba -1.90583 9.75892 2.10377
  Ba -1.88769 1.95178 2.10377
  Ba 1.89676 5.84740 2.10671
  Ba -5.69027 5.86330 2.10671
  Ba 1.89676 1.95178 2.13601
  Cu -3.79278 3.90346 4.09770
  Cu 3.79424 7.80725 4.09770
  Cu -0.00073 7.80725 4.09770
  Cu -0.00073 11.71059 4.09770
  Cu -3.79692 7.81270 4.10086
  Cu 3.79010 3.89800 4.10086
  Cu 0.00341 0.00557 4.10086
  Cu 0.00341 3.89800 4.10086
  O -0.05484 1.95178 4.34900
  O -3.73867 9.75892 4.34900
  O -5.69027 7.74921 4.38014
  O 1.89676 3.96149 4.38014
  O 3.79329 9.75892 4.40433
  O 0.00022 9.75892 4.40433
  O -0.00800 5.85524 4.40491
  O 3.80151 5.85524 4.40491
  O -3.78551 5.85547 4.40491
  O -0.00800 13.66260 4.40491
  O 1.89676 11.71078 4.43561
  O 1.89676 7.80705 4.43561
  O -1.89774 7.80038 4.43774
  O -1.89577 3.91032 4.43774
  O -1.89774 11.71746 4.43774
  O 5.69125 7.80038 4.43774
  Ca 1.89676 1.95178 5.84911
  Y -1.91567 9.75892 5.84915
  Y -1.87784 1.95178 5.84915
  Y 1.89676 9.75892 5.84922
  Y 5.69027 5.85535 5.84922
  Y -1.89676 5.85535 5.84922
  Y 1.89676 5.83604 5.84929
  Y -5.69027 5.87467 5.84929
  O -1.89578 3.91047 7.26463
  O 5.69124 7.80024 7.26463
  O -1.89773 11.71760 7.26463
  O -1.89773 7.80024 7.26463
  O 1.89676 7.80726 7.26710
  O 1.89676 11.71057 7.26710
  O -0.00790 13.66262 7.29027
  O -0.00790 5.85522 7.29027
  O 3.80141 5.85522 7.29027
  O -3.78561 5.85549 7.29027
  O 3.79349 9.75892 7.29059
  O 0.00002 9.75892 7.29059
  O 1.89676 3.96228 7.32235
  O -5.69027 7.74842 7.32235
  O -0.05417 1.95178 7.34616
  O -3.73934 9.75892 7.34616
  Cu -3.79693 7.81273 7.59787
  Cu 3.79009 3.89798 7.59787
  Cu 0.00342 0.00559 7.59787
  Cu 0.00342 3.89798 7.59787
  Cu -0.00074 11.71060 7.60095
  Cu -3.79277 3.90346 7.60095
  Cu 3.79425 7.80724 7.60095
  Cu -0.00074 7.80724 7.60095
  Ba 1.89676 1.95178 9.56202
  Ba -5.69027 5.86326 9.59138
  Ba 1.89676 5.84745 9.59138
  Ba -1.88770 1.95178 9.59410
  Ba -1.90581 9.75892 9.59410
  Ba -1.89676 5.85535 9.59778
  Ba 5.69027 5.85535 9.59778
  Ba 1.89676 9.75892 9.60148
  O 3.79376 7.80636 9.81621
  O -3.79326 3.90434 9.81621
  O -0.00025 7.80636 9.81621
  O -0.00025 11.71148 9.81621
  O 3.79689 3.90592 9.82106
  O -0.00338 3.90592 9.82106
  O -0.00338 -0.00235 9.82106
  O -3.79013 7.80478 9.82106
  O 3.78344 9.75892 11.69826
  O 0.01007 9.75892 11.69826
  Cu 0.00042 0.00130 11.69826
  Cu 0.00042 3.90226 11.69826
  Cu 3.79309 3.90226 11.69826
  Cu -3.79393 7.80844 11.69826
  Cu 3.79328 7.80724 11.69827
  Cu 0.00023 11.71060 11.69827
  Cu -3.79375 3.90346 11.69827
  Cu 0.00023 7.80724 11.69827
  O -0.00377 5.85492 11.69828
  O 3.79728 5.85492 11.69828
  O -0.00377 13.66292 11.69828
  O -3.78975 5.85578 11.69828
  O -3.78837 9.75892 11.69832
  O -0.00514 1.95178 11.69832
  O 3.79682 3.90599 13.57556
  O -0.00331 3.90599 13.57556
  O -0.00331 -0.00242 13.57556
  O -3.79020 7.80471 13.57556
  O 3.79368 7.80632 13.58042
  O -3.79335 3.90439 13.58042
  O -0.00017 7.80632 13.58042
  O -0.00017 11.71152 13.58042
  Ba 1.89676 9.75892 13.79491
  Ba 5.69027 5.85535 13.79862
  Ba -1.89676 5.85535 13.79862
  Ba -1.90583 9.75892 13.80220
  Ba -1.88769 1.95178 13.80220
  Ba 1.89676 5.84740 13.80514
  Ba -5.69027 5.86330 13.80514
  Ba 1.89676 1.95178 13.83444
  Cu -3.79278 3.90346 15.79613
  Cu 3.79424 7.80725 15.79613
  Cu -0.00073 7.80725 15.79613
  Cu -0.00073 11.71059 15.79613
  Cu -3.79692 7.81270 15.79929
  Cu 3.79010 3.89800 15.79929
  Cu 0.00341 0.00557 15.79929
  Cu 0.00341 3.89800 15.79929
  O -0.05484 1.95178 16.04743
  O -3.73867 9.75892 16.04743
  O -5.69027 7.74921 16.07857
  O 1.89676 3.96149 16.07857
  O 3.79329 9.75892 16.10276
  O 0.00022 9.75892 16.10276
  O -0.00800 5.85524 16.10334
  O 3.80151 5.85524 16.10334
  O -3.78551 5.85547 16.10334
  O -0.00800 13.66260 16.10334
  O 1.89676 11.71078 16.13404
  O 1.89676 7.80705 16.13404
  O -1.89774 7.80038 16.13617
  O -1.89577 3.91032 16.13617
  O -1.89774 11.71746 16.13617
  O 5.69125 7.80038 16.13617
  Ca 1.89676 1.95178 17.54754
  Y -1.91567 9.75892 17.54758
  Y -1.87784 1.95178 17.54758
  Y 1.89676 9.75892 17.54765
  Y 5.69027 5.85535 17.54765
  Y -1.89676 5.85535 17.54765
  Y 1.89676 5.83604 17.54772
  Y -5.69027 5.87467 17.54772
  O -1.89578 3.91047 18.96306
  O 5.69124 7.80024 18.96306
  O -1.89773 11.71760 18.96306
  O -1.89773 7.80024 18.96306
  O 1.89676 7.80726 18.96553
  O 1.89676 11.71057 18.96553
  O -0.00790 13.66262 18.98870
  O -0.00790 5.85522 18.98870
  O 3.80141 5.85522 18.98870
  O -3.78561 5.85549 18.98870
  O 3.79349 9.75892 18.98902
  O 0.00002 9.75892 18.98902
  O 1.89676 3.96228 19.02078
  O -5.69027 7.74842 19.02078
  O -0.05417 1.95178 19.04459
  O -3.73934 9.75892 19.04459
  Cu -3.79693 7.81273 19.29630
  Cu 3.79009 3.89798 19.29630
  Cu 0.00342 0.00559 19.29630
  Cu 0.00342 3.89798 19.29630
  Cu -0.00074 11.71060 19.29938
  Cu -3.79277 3.90346 19.29938
  Cu 3.79425 7.80724 19.29938
  Cu -0.00074 7.80724 19.29938
  Ba 1.89676 1.95178 21.26045
  Ba -5.69027 5.86326 21.28981
  Ba 1.89676 5.84745 21.28981
  Ba -1.88770 1.95178 21.29253
  Ba -1.90581 9.75892 21.29253
  Ba -1.89676 5.85535 21.29621
  Ba 5.69027 5.85535 21.29621
  Ba 1.89676 9.75892 21.29991
  O 3.79376 7.80636 21.51464
  O -3.79326 3.90434 21.51464
  O -0.00025 7.80636 21.51464
  O -0.00025 11.71148 21.51464
  O 3.79689 3.90592 21.51949
  O -0.00338 3.90592 21.51949
  O -0.00338 -0.00235 21.51949
  O -3.79013 7.80478 21.51949
  O 3.78344 9.75892 23.39686
  O 0.01007 9.75892 23.39686
  Cu 0.00042 0.00130 23.39686
  Cu 0.00042 3.90226 23.39686
  Cu 3.79309 3.90226 23.39686
  Cu -3.79393 7.80844 23.39686
  Cu 3.79328 7.80724 23.39686
  Cu 0.00023 11.71060 23.39686
  Cu -3.79375 3.90346 23.39686
  Cu 0.00023 7.80724 23.39686
  O -0.00377 5.85492 23.39686
  O 3.79728 5.85492 23.39686
  O -0.00377 13.66292 23.39686
  O -3.78975 5.85578 23.39686
  O -3.78837 9.75892 23.39686
  O -0.00514 1.95178 23.39686
