&CONTROL
    calculation = 'relax'
    pseudo_dir = './pseudo'
    outdir = './outdir'
    tstress = .true.
    tprnfor = .true.
    disk_io = 'none'
    nstep = 300
    etot_conv_thr = 0.001
    forc_conv_thr = 0.01
/ 
&SYSTEM
    ecutwfc = 60
    ecutrho = 720
    occupations = 'smearing'
    smearing = 'gaussian'
    degauss = 0.01
    ntyp = 4
    nat = 28
    ibrav = 0
/ 
&ELECTRONS
    diagonalization = 'david'
    electron_maxstep = 120
    mixing_mode = 'local-TF'
    mixing_beta = 0.7
    mixing_ndim = 10
    conv_thr = 1e-10
/ 
&IONS
    ion_dynamics = 'bfgs'
/ 
&CELL
    cell_dynamics = 'bfgs'
    press_conv_thr = 0.5
/ 
K_POINTS {automatic}
 8 8 1  0 0 0
ATOMIC_SPECIES
  Ba 137.327 Ba.pbe-nsp-van.UPF
  Ca 40.078 Ca.pbe-nsp-van.UPF
  Cu 63.546 Cu.pbe-n-van_ak.UPF
  O 15.999 O.pbe-van_ak.UPF
CELL_PARAMETERS {angstrom}
 3.930220125 0.0 0.0
 0.0 3.722237662 0.0
 0.0 0.0 44.07968197
ATOMIC_POSITIONS {angstrom}
 O             0.0000000000        1.8611200000       -0.1855672318    0   0   0
 Cu            0.0000000000        0.0000000000        0.1045134913    0   0   0
 O             0.0000000000        0.0000000000        1.9874047485    0   0   0
 Ba            1.9651100000        1.8611200000        2.2478843721    0   0   0
 Cu            0.0000000000        0.0000000000        4.0982294970    0   0   0
 O             1.9651100000        0.0000000000        4.2538136797    0   0   0
 O             0.0000000000        1.8611200000        4.3916372027    0   0   0
 Ca            1.9651100000        1.8611200000        5.9161993617    0   0   0
 O             0.0000000000        1.8611200000        7.3743927398    0   0   0
 O             1.9651100000        0.0000000000        7.5231621363    0   0   0
 Cu            0.0000000000        0.0000000000        7.7082067001    0   0   0
 Ba            1.9651100000        1.8611200000        9.5977619739    0   0   0
 O             0.0000000000        0.0000000000        9.9215346784    0   0   0
 O             0.0000000000        1.8611200000       11.8189701770    0   0   0
 Cu            0.0000000000        0.0000000000       11.8191913058    0   0   0
 O             0.0000000000        0.0000000000       13.7167976766    0   0   0
 Ba            1.9651100000        1.8611200000       14.0405402272    0   0   0
 Cu            0.0000000000        0.0000000000       15.8378797764
 O             1.9651100000        0.0000000000       16.0269195144
 O             0.0000000000        1.8611200000       16.3591648014
 Ca            1.9651100000        1.8611200000       17.8173454400
 O             0.0000000000        1.8611200000       19.2456146270
 O             1.9651100000        0.0000000000       19.6559046107
 Cu            0.0000000000        0.0000000000       19.9994409626
 Ba            1.9651100000        1.8611200000       21.7660850695
 O             0.0000000000        0.0000000000       21.8275474186
 Cu            0.0000000000        0.0000000000       23.8101135700    0   0   0
 O             0.0000000000        1.8611200000       24.1001440365    0   0   0 

