&CONTROL
    calculation = 'relax'
    pseudo_dir = './pseudo'
    outdir = './outdir'
    tstress = .true.
    tprnfor = .true.
    disk_io = 'none'
    nstep = 300
    etot_conv_thr = 0.001
    forc_conv_thr = 0.01
/ 
&SYSTEM
    ecutwfc = 60
    ecutrho = 720
    occupations = 'smearing'
    smearing = 'gaussian'
    degauss = 0.01
    ntyp = 4
    nat = 28
    ibrav = 0
/ 
&ELECTRONS
    diagonalization = 'david'
    electron_maxstep = 120
    mixing_mode = 'local-TF'
    mixing_beta = 0.7
    mixing_ndim = 10
    conv_thr = 1e-10
/ 
&IONS
    ion_dynamics = 'bfgs'
/ 
&CELL
    cell_dynamics = 'bfgs'
    press_conv_thr = 0.5
/ 
K_POINTS {automatic}
 8 8 1  0 0 0
ATOMIC_SPECIES
  Ba 137.327 Ba.pbe-nsp-van.UPF
  Ca 40.078 Ca.pbe-nsp-van.UPF
  Cu 63.546 Cu.pbe-n-van_ak.UPF
  O 15.999 O.pbe-van_ak.UPF
CELL_PARAMETERS {angstrom}
 3.930220125 0.0 0.0
 0.0 3.722237662 0.0
 0.0 0.0 44.07968197
ATOMIC_POSITIONS {angstrom}
 O             0.0000000000        1.8611200000       -0.1846200000    0   0   0
 Cu            0.0000000000        0.0000000000        0.1039800000    0   0   0
 O             0.0000000000        0.0000000000        1.9772600000    0   0   0
 Ba            1.9651100000        1.8611200000        2.2364100000    0   0   0
 Cu            0.0000000000        0.0000000000        4.0773100000    0   0   0
 O             1.9651100000        0.0000000000        4.2321000000    0   0   0
 O             0.0000000000        1.8611200000        4.3692200000    0   0   0
 Ca            1.9651100000        1.8611200000        5.8860000000    0   0   0
 O             0.0000000000        1.8611200000        7.3367500000    0   0   0
 O             1.9651100000        0.0000000000        7.4847600000    0   0   0
 Cu            0.0000000000        0.0000000000        7.6688600000    0   0   0
 Ba            1.9651100000        1.8611200000        9.5487700000    0   0   0
 O             0.0000000000        0.0000000000        9.8708900000    0   0   0
 O             0.0000000000        1.8611200000       11.7586400000    0   0   0
 Cu            0.0000000000        0.0000000000       11.7588600000    0   0   0
 O             0.00000             0.00000            13.64678         0   0   0
 Ba            1.96511             1.86112            13.96887         0   0   0
 Cu            0.0000000000        0.0000000000       15.9320437880
 O             1.9651100000        0.0000000000       16.1452301018
 O             0.0000000000        1.8611200000       16.1190456319
 Ca            1.9651100000        1.8611200000       17.5678556354
 O             0.0000000000        1.8611200000       19.7009421122
 O             1.9651100000        0.0000000000       19.8451582041
 Cu            0.0000000000        0.0000000000       19.8601366229
 Ba            1.9651100000        1.8611200000       21.7811700000
 O             0.0000000000        0.0000000000       22.0402800000
 Cu            0.0000000000        0.0000000000       23.9135800000    0   0   0
 O             0.0000000000        1.8611200000       24.2021300000    0   0   0
