&CONTROL
    calculation = 'relax'
    pseudo_dir = './pseudo'
    outdir = './outdir'
    tstress = .true.
    tprnfor = .true.
    disk_io = 'none'
    nstep = 300
    etot_conv_thr = 0.001
    forc_conv_thr = 0.01
/ 
&SYSTEM
    ecutwfc = 60
    ecutrho = 720
    occupations = 'smearing'
    smearing = 'gaussian'
    degauss = 0.01
    ntyp = 4
    nat = 28
    ibrav = 0
/ 
&ELECTRONS
    diagonalization = 'david'
    electron_maxstep = 120
    mixing_mode = 'local-TF'
    mixing_beta = 0.7
    mixing_ndim = 10
    conv_thr = 1e-10
/ 
&IONS
    ion_dynamics = 'bfgs'
/ 
&CELL
    cell_dynamics = 'bfgs'
    press_conv_thr = 0.5
/ 
K_POINTS {automatic}
 8 8 1  0 0 0
ATOMIC_SPECIES
  Ba 137.327 Ba.pbe-nsp-van.UPF
  Ca 40.078 Ca.pbe-nsp-van.UPF
  Cu 63.546 Cu.pbe-n-van_ak.UPF
  O 15.999 O.pbe-van_ak.UPF
CELL_PARAMETERS {angstrom}
 3.930220125 0.0 0.0
 0.0 3.722237662 0.0
 0.0 0.0 44.32968197
ATOMIC_POSITIONS {angstrom}
  O 0.00000 1.86112 -0.18462    0   0   0
  Cu 0.00000 0.00000 0.10398    0   0   0
  O 0.00000 0.00000 1.97726    0   0   0
  Ba 1.96511 1.86112 2.23641    0   0   0
  Cu 0.00000 0.00000 4.07731    0   0   0
  O 1.96511 0.00000 4.23210    0   0   0
  O 0.00000 1.86112 4.36922    0   0   0
  Ca 1.96511 1.86112 5.88600    0   0   0
  O 0.00000 1.86112 7.33675    0   0   0
  O 1.96511 0.00000 7.48476    0   0   0
  Cu 0.00000 0.00000 7.66886    0   0   0
  Ba 1.96511 1.86112 9.54877    0   0   0
  O 0.00000 0.00000 9.87089    0   0   0
  O 0.00000 1.86112 11.75864    0   0   0
  Cu 0.00000 0.00000 11.75886    0   0   0
  O 0.00000 0.00000 13.64678    0   0   0
  Ba 1.96511 1.86112 13.96887   0   0   0
  Cu 0.0000000000 0.0000000000 16.2082018002
  O 1.9651100000 0.0000000000 16.4112375383
  O 0.0000000000 1.8611200000 16.5583931033
  Ca 1.9651100000 1.8611200000 18.0305725483
  O 0.0000000000 1.8611200000 19.6156016870
  O 1.9651100000 0.0000000000 19.7547074590
  Cu 0.0000000000 0.0000000000 19.9136719472
  Ba 1.9651100000 1.8611200000 21.7770397975
  O 0.0000000000 0.0000000000 22.0391028052
  Cu 0.00000 0.00000 24.16358    0   0   0
  O 0.00000 1.86112 24.45213    0   0   0
