&CONTROL
    calculation = 'scf'
    pseudo_dir = './pseudo'
    outdir = './outdir'
    tstress = .true.
    tprnfor = .true.
    disk_io = 'none'
    nstep = 300
    etot_conv_thr = 0.0001
    forc_conv_thr = 0.001
/ 
&SYSTEM
    ecutwfc = 60
    ecutrho = 720
    occupations = 'smearing'
    smearing = 'gaussian'
    degauss = 0.01
    ntyp = 5
    nat = 224
    ibrav = 0
/ 
&ELECTRONS
    diagonalization = 'david'
    electron_maxstep = 120
    mixing_mode = 'local-TF'
    mixing_beta = 0.5
    mixing_ndim = 10
    conv_thr = 1e-08
/ 
&IONS
    ion_dynamics = 'bfgs'
/ 
&CELL
    cell_dynamics = 'bfgs'
    press_conv_thr = 5
/ 
K_POINTS {automatic}
 3 3 1  0 0 0
ATOMIC_SPECIES
  Ba 137.327 Ba.pbe-nsp-van.UPF
  Ca 40.078 Ca.pbe-nsp-van.UPF
  Cu 63.546 Cu.pbe-n-van_ak.UPF
  O 15.999 O.pbe-van_ak.UPF
  Y 88.90584 Y.pbe-nsp-van.UPF
CELL_PARAMETERS {angstrom}
 -7.774566193 7.567195365 0.0
 7.774566193 7.567195365 0.0
 0.0 0.0 48.493740743
ATOMIC_POSITIONS {angstrom}
  O 3.84706 9.45899 -0.08398
  O 0.04022 9.45899 -0.08398
  Cu -0.00280 0.00658 0.08765
  Cu -0.00280 3.77702 0.08765
  Cu 3.89008 3.77702 0.08765
  Cu -3.88449 7.57377 0.08765
  Cu 3.88185 7.56342 0.09358
  Cu 0.00543 11.35457 0.09358
  Cu -3.89273 3.78737 0.09358
  Cu 0.00543 7.56342 0.09358
  O -0.00188 5.66918 -0.09738
  O 3.88916 5.66918 -0.09738
  O -0.00188 13.24881 -0.09738
  O -3.88542 5.68161 -0.09738
  O -3.84558 9.45899 -0.11456
  O -0.04171 1.89180 -0.11456
  O 3.89360 3.78270 1.97137
  O -0.00632 3.78270 1.97137
  O -0.00632 0.00090 1.97137
  O -3.88096 7.56809 1.97137
  O 3.88868 7.55959 1.98084
  O -3.88589 3.79121 1.98084
  O -0.00140 7.55959 1.98084
  O -0.00140 11.35840 1.98084
  Ba 1.94365 9.45899 2.07062
  Ba 5.83093 5.67540 2.08295
  Ba -1.94365 5.67540 2.08295
  Ba -1.94611 9.45899 2.09603
  Ba -1.94119 1.89180 2.09603
  Ba 1.94365 5.66559 2.09322
  Ba -5.83093 5.68520 2.09322
  Ba 1.94365 1.89180 2.16168
  Cu -3.88775 3.78471 4.09826
  Cu 3.88681 7.56609 4.09826
  Cu 0.00047 7.56609 4.09826
  Cu 0.00047 11.35190 4.09826
  Cu -3.89113 7.56742 4.09573
  Cu 3.88343 3.78337 4.09573
  Cu 0.00385 0.00023 4.09573
  Cu 0.00385 3.78337 4.09573
  O -0.05205 1.89180 4.33630
  O -3.83524 9.45899 4.33630
  O -5.83093 7.51268 4.29304
  O 1.94365 3.83811 4.29304
  O 3.89096 9.45899 4.39052
  O -0.00368 9.45899 4.39052
  O -0.00527 5.67478 4.41197
  O 3.89255 5.67478 4.41197
  O -3.88201 5.67602 4.41197
  O -0.00527 13.24321 4.41197
  O 1.94365 11.35006 4.37109
  O 1.94365 7.56792 4.37109
  O -1.94447 7.55886 4.36787
  O -1.94281 3.79193 4.36787
  O -1.94447 11.35913 4.36787
  O 5.83176 7.55886 4.36787
  Ca 1.94365 1.89180 5.81370
  Y -1.96537 9.45899 5.83029
  Y -1.92191 1.89180 5.83029
  Y 1.94365 9.45899 5.83643
  Y 5.83093 5.67540 5.84177
  Y -1.94365 5.67540 5.84177
  Y 1.94365 5.65962 5.84049
  Y -5.83093 5.69118 5.84049
  O -1.93958 3.78983 7.28236
  O 5.83498 7.56097 7.28236
  O -1.94770 11.35702 7.28236
  O -1.94770 7.56097 7.28236
  O 1.94365 7.56485 7.28922
  O 1.94365 11.35313 7.28922
  O -0.00421 13.24036 7.23373
  O -0.00421 5.67763 7.23373
  O 3.89150 5.67763 7.23373
  O -3.88307 5.67317 7.23373
  O 3.89038 9.45899 7.20601
  O -0.00310 9.45899 7.20601
  O 1.94365 3.83534 7.33060
  O -5.83093 7.51545 7.33060
  O -0.04670 1.89180 7.28077
  O -3.84058 9.45899 7.28077
  Cu -3.89110 7.56584 7.56675
  Cu 3.88346 3.78496 7.56675
  Cu 0.00382 -0.00136 7.56675
  Cu 0.00382 3.78496 7.56675
  Cu 0.00009 11.34767 7.58256
  Cu -3.88737 3.78047 7.58256
  Cu 3.88719 7.57032 7.58256
  Cu 0.00009 7.57032 7.58256
  Ba 1.94365 1.89180 9.40803
  Ba -5.83093 5.68491 9.57733
  Ba 1.94365 5.66589 9.57733
  Ba -1.93726 1.89180 9.53027
  Ba -1.95003 9.45899 9.53027
  Ba -1.94365 5.67540 9.59235
  Ba 5.83093 5.67540 9.59235
  Ba 1.94365 9.45899 9.59577
  O 3.91429 7.56843 9.80542
  O -3.86027 3.78236 9.80542
  O -0.02701 7.56843 9.80542
  O -0.02701 11.34956 9.80542
  O 3.84507 3.75737 9.81170
  O 0.04221 3.75737 9.81170
  O 0.04221 0.02623 9.81170
  O -3.92950 7.59342 9.81170
  O 3.59571 9.45899 11.69948
  O 0.29157 9.45899 11.69948
  Cu -0.03025 0.03452 11.69776
  Cu -0.03025 3.74907 11.69776
  Cu 3.91753 3.74907 11.69776
  Cu -3.85703 7.60172 11.69776
  Cu 3.88369 7.57669 11.69764
  Cu 0.00360 11.34130 11.69764
  Cu -3.89089 3.77410 11.69764
  Cu 0.00360 7.57669 11.69764
  O -0.06045 5.66201 11.69440
  O 3.94774 5.66201 11.69440
  O -0.06045 13.25598 11.69440
  O -3.82684 5.68878 11.69440
  O -3.43962 9.45899 11.69896
  O -0.44766 1.89180 11.69896
  O 3.84509 3.75931 13.58366
  O 0.04219 3.75931 13.58366
  O 0.04219 0.02429 13.58366
  O -3.92947 7.59148 13.58366
  O 3.91439 7.56626 13.58975
  O -3.86018 3.78454 13.58975
  O -0.02711 7.56626 13.58975
  O -0.02711 11.35173 13.58975
  Ba 1.94365 9.45899 13.79974
  Ba 5.83093 5.67540 13.80325
  Ba -1.94365 5.67540 13.80325
  Ba -1.94932 9.45899 13.86509
  Ba -1.93797 1.89180 13.86509
  Ba 1.94365 5.66610 13.81874
  Ba -5.83093 5.68469 13.81874
  Ba 1.94365 1.89180 13.98715
  Cu -3.88739 3.78062 15.81304
  Cu 3.88718 7.57018 15.81304
  Cu 0.00011 7.57018 15.81304
  Cu 0.00011 11.34781 15.81304
  Cu -3.89106 7.56580 15.82845
  Cu 3.88351 3.78499 15.82845
  Cu 0.00378 -0.00139 15.82845
  Cu 0.00378 3.78499 15.82845
  O -0.04684 1.89180 16.11384
  O -3.84044 9.45899 16.11384
  O -5.83093 7.51561 16.06468
  O 1.94365 3.83518 16.06468
  O 3.89032 9.45899 16.18881
  O -0.00304 9.45899 16.18881
  O -0.00418 5.67756 16.16173
  O 3.89147 5.67756 16.16173
  O -3.88310 5.67324 16.16173
  O -0.00418 13.24043 16.16173
  O 1.94365 11.35326 16.10611
  O 1.94365 7.56472 16.10611
  O -1.94760 7.56092 16.11293
  O -1.93968 3.78987 16.11293
  O -1.94760 11.35707 16.11293
  O 5.83488 7.56092 16.11293
  Ca 1.94365 1.89180 17.58151
  Y -1.96539 9.45899 17.56490
  Y -1.92189 1.89180 17.56490
  Y 1.94365 9.45899 17.55879
  Y 5.83093 5.67540 17.55370
  Y -1.94365 5.67540 17.55370
  Y 1.94365 5.65954 17.55501
  Y -5.83093 5.69126 17.55501
  O -1.94276 3.79191 24.02741
  O 5.83180 7.55889 24.02741
  O -1.94452 11.35910 24.02741
  O -1.94452 7.55889 24.02741
  O 1.94365 7.56801 24.02419
  O 1.94365 11.34997 24.02419
  O -0.00526 13.24318 23.98335
  O -0.00526 5.67481 23.98335
  O 3.89254 5.67481 23.98335
  O -3.88202 5.67599 23.98335
  O 3.89105 9.45899 24.00438
  O -0.00376 9.45899 24.00438
  O 1.94365 3.83813 24.10227
  O -5.83093 7.51266 24.10227
  O -0.05194 1.89180 24.05849
  O -3.83534 9.45899 24.05849
  Cu -3.89115 7.56745 24.29941
  Cu 3.88342 3.78335 24.29941
  Cu 0.00387 0.00025 24.29941
  Cu 0.00387 3.78335 24.29941
  Cu 0.00045 11.35186 24.29689
  Cu -3.88773 3.78466 24.29689
  Cu 3.88684 7.56613 24.29689
  Cu 0.00045 7.56613 24.29689
  Ba 1.94365 1.89180 26.23354
  Ba -5.83093 5.68519 26.30199
  Ba 1.94365 5.66561 26.30199
  Ba -1.94117 1.89180 26.29921
  Ba -1.94611 9.45899 26.29921
  Ba -1.94365 5.67540 26.31234
  Ba 5.83093 5.67540 26.31234
  Ba 1.94365 9.45899 26.32458
  O 3.88870 7.55962 26.41430
  O -3.88586 3.79117 26.41430
  O -0.00142 7.55962 26.41430
  O -0.00142 11.35837 26.41430
  O 3.89358 3.78266 26.42377
  O -0.00630 3.78266 26.42377
  O -0.00630 0.00094 26.42377
  O -3.88098 7.56813 26.42377
  O 3.84706 9.45899 28.47895
  O 0.04023 9.45899 28.47895
  Cu -0.00273 0.00659 28.30749
  Cu -0.00273 3.77700 28.30749
  Cu 3.89001 3.77700 28.30749
  Cu -3.88455 7.57379 28.30749
  Cu 3.88182 7.56342 28.30156
  Cu 0.00546 11.35457 28.30156
  Cu -3.89275 3.78737 28.30156
  Cu 0.00546 7.56342 28.30156
  O -0.00187 5.66918 28.49239
  O 3.88915 5.66918 28.49239
  O -0.00187 13.24881 28.49239
  O -3.88543 5.68161 28.49239
  O -3.84567 9.45899 28.50964
  O -0.04161 1.89180 28.50964
