&control
	calculation = 'vc-relax'
	outdir = './outdir'
	pseudo_dir = './pseudo'
    tstress = .true.
    tprnfor = .true.
    disk_io = 'none'
	nstep = 300
	etot_conv_thr = 1.0d-5
	forc_conv_thr = 1.0d-4
/
&system
	ibrav = 0
	nat=13, ntyp=4,
	ecutwfc = 60
	ecutrho = 720
	occupations = 'smearing', smearing = 'gaussian', degauss = 0.01
/
&electrons
	electron_maxstep = 120
	mixing_beta = 0.5	
	conv_thr = 1d-6
    mixing_ndim = 10
    mixing_mode = 'local-TF'
    diagonalization = 'david'
/
&ions
    ion_dynamics="bfgs"
/
&cell
    cell_dynamics="bfgs"
/
ATOMIC_SPECIES
 Ca  40.07800 Ca.pbe-nsp-van.UPF
 Ba  137.3270 Ba.pbe-nsp-van.UPF
 O   15.99900 O.pbe-van_ak.UPF
 Cu  63.55000 Cu.pbe-n-van_ak.UPF
CELL_PARAMETERS {angstrom}
	3.844670 	0.000000  	 0.0000000000  	
	0.000000  	3.926150 	 0.0000000000  	
	0.000000  	0.000000	 11.823660000  	
ATOMIC_POSITIONS (angstrom)
Ba    1.922334    1.963076    9.688204
Ba    1.922334    1.963076    2.135460
Ca    1.922334    1.963076    5.911832
Cu    0.000000    0.000000    7.646103
Cu    0.000000    0.000000    4.177560
Cu    0.000000    0.000000    0.000000
 O    0.000000    1.963076    0.000000
 O    1.922334    0.000000    7.338392
 O    1.922334    0.000000    4.485271
 O    0.000000    1.963076    7.350192
 O    0.000000    1.963076    4.473472
 O    0.000000    0.000000    9.941573
 O    0.000000    0.000000    1.882091
K_POINTS (automatic)
  8 8 1 0 0 0
