&CONTROL
    calculation = 'vc-relax'
    pseudo_dir = './pseudo'
    outdir = './outdir'
    tstress = .true.
    tprnfor = .true.
    disk_io = 'none'
    nstep = 300
    etot_conv_thr = 0.0001
    forc_conv_thr = 0.001
/ 
&SYSTEM
    ecutwfc = 60
    ecutrho = 720
    occupations = 'smearing'
    smearing = 'gaussian'
    degauss = 0.01
    ntyp = 4
    nat = 28
    ibrav = 0
/ 
&ELECTRONS
    diagonalization = 'david'
    electron_maxstep = 120
    mixing_mode = 'local-TF'
    mixing_beta = 0.5
    mixing_ndim = 10
    conv_thr = 1e-08
/ 
&IONS
    ion_dynamics = 'bfgs'
/ 
&CELL
    cell_dynamics = 'bfgs'
    press_conv_thr = 0.5
/ 
K_POINTS {automatic}
 8 8 1  0 0 0
ATOMIC_SPECIES
  Ba 137.327 Ba.pbe-nsp-van.UPF
  Ca 40.078 Ca.pbe-nsp-van.UPF
  Cu 63.546 Cu.pbe-n-van_ak.UPF
  O 15.999 O.pbe-van_ak.UPF
CELL_PARAMETERS {angstrom}
 3.795652473 0.0 0.0
 0.0 3.866185674 0.0
 0.0 0.0 43.661985954
ATOMIC_POSITIONS {angstrom}
  Cu 0.00000 0.00000 0.00000
  O 0.00000 1.93309 0.00000
  O 0.00000 0.00000 1.86450
  Ba 1.89783 1.93309 2.18912
  Cu 0.00000 0.00000 4.08782
  O 0.00000 1.93309 4.32476
  O 1.89783 0.00000 4.33945
  Ca 1.89783 1.93309 5.89050
  O 1.89783 0.00000 7.44155
  O 0.00000 1.93309 7.45623
  Cu 0.00000 0.00000 7.69318
  Ba 1.89783 1.93309 9.59188
  O 0.00000 0.00000 9.91650
  Cu 0.00000 0.00000 11.78099
  O 0.00000 1.93309 11.78099
  O 0.00000 0.00000 13.64549
  Ba 1.89783 1.93309 13.97011
  Cu 0.00000 0.00000 15.86881
  O 0.00000 1.93309 16.10576
  O 1.89783 0.00000 16.12044
  Ca 1.89783 1.93309 17.67149
  O 1.89783 0.00000 19.22254
  O 0.00000 1.93309 19.23723
  Cu 0.00000 0.00000 19.47417
  Ba 1.89783 1.93309 21.37287
  O 0.00000 0.00000 21.69749
  Cu 0.00000 0.00000 23.56199
  O 0.00000 1.93309 23.56199
