&control
	calculation = 'vc-relax'
	restart_mode = 'from_scratch'
	prefix = 'YBCO_ecut20'
	outdir = '/n/holyscratch01/hoffman_lab/ruizhe/outdir'
	pseudo_dir = './pseudo'
	nstep = 300
	etot_conv_thr = 1.0d-5
	forc_conv_thr = 1.0d-4
/
&system
	ibrav = 0
	nat=13, ntyp=4,
	ecutwfc = 20.0
	ecutrho = 240
	occupations = 'smearing', smearing = 'gaussian', degauss = 0.01
/
&electrons
	electron_maxstep = 120
	mixing_beta = 0.5	
	conv_thr = 1d-6
/
&ions
    ion_dynamics="bfgs"
/
&cell
    cell_dynamics="bfgs"
/
ATOMIC_SPECIES
 Y   88.90585 Y.pz-spn-rrkjus_psl.1.0.0.UPF
 Ba  137.3270 Ba.pz-spn-rrkjus_psl.1.0.0.UPF
 O   15.99900 O.pz-rrkjus.UPF
 Cu  63.55000 Cu.pz-d-rrkjus.UPF
CELL_PARAMETERS {angstrom}
   3.769080865   0.000000000   0.000000000
   0.000000000   3.835836042   0.000000000
   0.000000000   0.000000000  11.373264649
ATOMIC_POSITIONS (angstrom)
Ba            1.8845394522        1.9179189979        9.2971195809
Ba            1.8845394522        1.9179189979        2.0761489162
Y             1.8845394522        1.9179189979        5.6866342485
Cu            0.0000000000        0.0000000000        7.3827174566
Cu            0.0000000000        0.0000000000        3.9905500786
Cu            0.0000000000        0.0000000000        0.0000000000
O             0.0000000000        1.9179189979        0.0000000000
O             1.8845394522        0.0000000000        7.0837409489
O             1.8845394522        0.0000000000        4.2895265863
O             0.0000000000        1.9179189979        7.0852308460
O             0.0000000000        1.9179189979        4.2880376510
O             0.0000000000        0.0000000000        9.5255903253
O             0.0000000000        0.0000000000        1.8476781717
K_POINTS (automatic)
  8 8 1 0 0 0
