&CONTROL
    calculation = 'relax'
    pseudo_dir = '/home/bond/Software/qe-6.7/pseudo'
    outdir = '/home/bond/Work/AP275/Z_Test_LL'
    tstress = .true.
    tprnfor = .true.
    disk_io = 'none'
/ 
&SYSTEM
    ecutwfc = 80
    ecutrho = 960
    occupations = 'smearing'
    smearing = 'mp'
    degauss = 0.02
    ntyp = 4
    nat = 78
    ibrav = 0
/ 
&ELECTRONS
    diagonalization = 'david'
    mixing_beta = 0.7
    conv_thr = 1e-07
/ 
&IONS
    ion_dynamics = 'bfgs'
/ 
&CELL
/ 
K_POINTS {automatic}
 8 8 1  1 1 1
ATOMIC_SPECIES
  Ba 137.327 Ba.pz-spn-rrkjus_psl.1.0.0.UPF
  Cu 63.546 Cu.pz-d-rrkjus.UPF
  O 15.999 O.pz-rrkjus.UPF
  Y 88.90584 Y.pz-spn-rrkjus_psl.1.0.0.UPF
CELL_PARAMETERS {angstrom}
 5.452017975025394 0.0 0.0
 0.0 5.452017975025394 0.0
 0.0 0.0 35.04
ATOMIC_POSITIONS {angstrom}
  Y 2.72601 0.00000 5.84000
  Y 0.00000 2.72601 5.84000
  Ba 2.72601 0.00000 9.57048
  Ba 0.00000 2.72601 9.57048
  Ba 2.72601 0.00000 2.10952
  Ba 0.00000 2.72601 2.10952
  Cu 0.00000 0.00000 0.00000
  Cu 2.72601 2.72601 0.00000
  Cu 0.00000 0.00000 7.55322
  Cu 2.72601 2.72601 7.55322
  Cu 0.00000 0.00000 4.12678
  Cu 2.72601 2.72601 4.12678
  O 1.36300 1.36300 0.00000
  O 4.08901 4.08901 0.00000
  O 0.00000 0.00000 1.85922
  O 2.72601 2.72601 1.85922
  O 1.36300 1.36300 4.41913
  O 4.08901 4.08901 4.41913
  O 1.36300 4.08901 4.43081
  O 4.08901 1.36300 4.43081
  O 1.36300 1.36300 7.24919
  O 4.08901 4.08901 7.24919
  O 1.36300 4.08901 7.26087
  O 4.08901 1.36300 7.26087
  O 0.00000 0.00000 9.82078
  O 2.72601 2.72601 9.82078
  Y 2.72601 0.00000 17.52000
  Y 0.00000 2.72601 17.52000
  Ba 2.72601 0.00000 21.25048
  Ba 0.00000 2.72601 21.25048
  Ba 2.72601 0.00000 13.78952
  Ba 0.00000 2.72601 13.78952
  Cu 0.00000 0.00000 11.68000
  Cu 2.72601 2.72601 11.68000
  Cu 0.00000 0.00000 19.23322
  Cu 2.72601 2.72601 19.23322
  Cu 0.00000 0.00000 15.80678
  Cu 2.72601 2.72601 15.80678
  O 1.36300 1.36300 11.68000
  O 4.08901 4.08901 11.68000
  O 0.00000 0.00000 13.53922
  O 2.72601 2.72601 13.53922
  O 1.36300 1.36300 16.09913
  O 4.08901 4.08901 16.09913
  O 1.36300 4.08901 16.11081
  O 4.08901 1.36300 16.11081
  O 1.36300 1.36300 18.92919
  O 4.08901 4.08901 18.92919
  O 1.36300 4.08901 18.94087
  O 4.08901 1.36300 18.94087
  O 0.00000 0.00000 21.50078
  O 2.72601 2.72601 21.50078
  Y 2.72601 0.00000 29.20000
  Y 0.00000 2.72601 29.20000
  Ba 2.72601 0.00000 32.93048
  Ba 0.00000 2.72601 32.93048
  Ba 2.72601 0.00000 25.46952
  Ba 0.00000 2.72601 25.46952
  Cu 0.00000 0.00000 23.36000
  Cu 2.72601 2.72601 23.36000
  Cu 0.00000 0.00000 30.91322
  Cu 2.72601 2.72601 30.91322
  Cu 0.00000 0.00000 27.48678
  Cu 2.72601 2.72601 27.48678
  O 1.36300 1.36300 23.36000
  O 4.08901 4.08901 23.36000
  O 0.00000 0.00000 25.21922
  O 2.72601 2.72601 25.21922
  O 1.36300 1.36300 27.77913
  O 4.08901 4.08901 27.77913
  O 1.36300 4.08901 27.79081
  O 4.08901 1.36300 27.79081
  O 1.36300 1.36300 30.60919
  O 4.08901 4.08901 30.60919
  O 1.36300 4.08901 30.62087
  O 4.08901 1.36300 30.62087
  O 0.00000 0.00000 33.18078
  O 2.72601 2.72601 33.18078
